p cnf 100 198
e 1 2 3 4 5 6 7 8 9 10 11 12 13 14 15 16 17 18 19 20 21 22 23 24 25 26 27 28 29 30 31 32 33 34 35 36 37 38 39 40 41 42 43 44 45 46 47 48 49 50 0
a 51 0
e 52 53 54 55 56 57 58 59 60 61 62 63 64 65 66 67 68 69 70 71 72 73 74 75 76 77 78 79 80 81 82 83 84 85 86 87 88 89 90 91 92 93 94 95 96 97 98 99 100 0
-1 -2 -52 0
-1 2 52 0
1 -2 52 0
1 2 -52 0
-52 -3 -53 0
-52 3 53 0
52 -3 53 0
52 3 -53 0
-53 -4 -54 0
-53 4 54 0
53 -4 54 0
53 4 -54 0
-54 -5 -55 0
-54 5 55 0
54 -5 55 0
54 5 -55 0
-55 -6 -56 0
-55 6 56 0
55 -6 56 0
55 6 -56 0
-56 -7 -57 0
-56 7 57 0
56 -7 57 0
56 7 -57 0
-57 -8 -58 0
-57 8 58 0
57 -8 58 0
57 8 -58 0
-58 -9 -59 0
-58 9 59 0
58 -9 59 0
58 9 -59 0
-59 -10 -60 0
-59 10 60 0
59 -10 60 0
59 10 -60 0
-60 -11 -61 0
-60 11 61 0
60 -11 61 0
60 11 -61 0
-61 -12 -62 0
-61 12 62 0
61 -12 62 0
61 12 -62 0
-62 -13 -63 0
-62 13 63 0
62 -13 63 0
62 13 -63 0
-63 -14 -64 0
-63 14 64 0
63 -14 64 0
63 14 -64 0
-64 -15 -65 0
-64 15 65 0
64 -15 65 0
64 15 -65 0
-65 -16 -66 0
-65 16 66 0
65 -16 66 0
65 16 -66 0
-66 -17 -67 0
-66 17 67 0
66 -17 67 0
66 17 -67 0
-67 -18 -68 0
-67 18 68 0
67 -18 68 0
67 18 -68 0
-68 -19 -69 0
-68 19 69 0
68 -19 69 0
68 19 -69 0
-69 -20 -70 0
-69 20 70 0
69 -20 70 0
69 20 -70 0
-70 -21 -71 0
-70 21 71 0
70 -21 71 0
70 21 -71 0
-71 -22 -72 0
-71 22 72 0
71 -22 72 0
71 22 -72 0
-72 -23 -73 0
-72 23 73 0
72 -23 73 0
72 23 -73 0
-73 -24 -74 0
-73 24 74 0
73 -24 74 0
73 24 -74 0
-74 -25 -75 0
-74 25 75 0
74 -25 75 0
74 25 -75 0
-75 -26 -76 0
-75 26 76 0
75 -26 76 0
75 26 -76 0
-76 -27 -77 0
-76 27 77 0
76 -27 77 0
76 27 -77 0
-77 -28 -78 0
-77 28 78 0
77 -28 78 0
77 28 -78 0
-78 -29 -79 0
-78 29 79 0
78 -29 79 0
78 29 -79 0
-79 -30 -80 0
-79 30 80 0
79 -30 80 0
79 30 -80 0
-80 -31 -81 0
-80 31 81 0
80 -31 81 0
80 31 -81 0
-81 -32 -82 0
-81 32 82 0
81 -32 82 0
81 32 -82 0
-82 -33 -83 0
-82 33 83 0
82 -33 83 0
82 33 -83 0
-83 -34 -84 0
-83 34 84 0
83 -34 84 0
83 34 -84 0
-84 -35 -85 0
-84 35 85 0
84 -35 85 0
84 35 -85 0
-85 -36 -86 0
-85 36 86 0
85 -36 86 0
85 36 -86 0
-86 -37 -87 0
-86 37 87 0
86 -37 87 0
86 37 -87 0
-87 -38 -88 0
-87 38 88 0
87 -38 88 0
87 38 -88 0
-88 -39 -89 0
-88 39 89 0
88 -39 89 0
88 39 -89 0
-89 -40 -90 0
-89 40 90 0
89 -40 90 0
89 40 -90 0
-90 -41 -91 0
-90 41 91 0
90 -41 91 0
90 41 -91 0
-91 -42 -92 0
-91 42 92 0
91 -42 92 0
91 42 -92 0
-92 -43 -93 0
-92 43 93 0
92 -43 93 0
92 43 -93 0
-93 -44 -94 0
-93 44 94 0
93 -44 94 0
93 44 -94 0
-94 -45 -95 0
-94 45 95 0
94 -45 95 0
94 45 -95 0
-95 -46 -96 0
-95 46 96 0
95 -46 96 0
95 46 -96 0
-96 -47 -97 0
-96 47 97 0
96 -47 97 0
96 47 -97 0
-97 -48 -98 0
-97 48 98 0
97 -48 98 0
97 48 -98 0
-98 -49 -99 0
-98 49 99 0
98 -49 99 0
98 49 -99 0
-99 -50 -100 0
-99 50 100 0
99 -50 100 0
99 50 -100 0
51 100 0
-51 -100 0
